c This is QMaxSAT 2017 based on 14.07
c This is Glucose 3.0
c This is MiniSat 2.2.0
c WARNING: for repeatability, setting FPU to use double precision
c card = mrwto, comp = 0, pmodel = 0, narr = 6, mct = 52, verb = 0
cr firstCPXsol 0 0 0
c top = 1525567
c |  Number of variables:    6498                                             |
c |  Number of clauses:      335847                                           |
c |  Weight of hard clauses: 1525567                                          |
c |  Number of soft clauses: 18972                                            |
c |  Number of unit soft clauses: 0                                           |
c |  Maximum Cardinality (by unit): 10447176     (0           )               |
c last restart ## conflicts  :  0 1476 
o 18788 | cpuTime 0.07049 s
c Sum of weights = 1741196
c A number of soft clauses remained = 3162
c MRWTO encoding for Pseudo-Boolean Constraints
c sizeMax=18788
c No.0 Divisor=12	generated by pow1
c No.1 Divisor=12	generated by pow1
c No.2 Divisor=12	generated by pow1
c No.3 Divisor=12	generated by pow1
c p0= 12	p1= 12	p2= 12	p3= 12	
c number of digits = 5
c linkingVar[0].size = 12, linkingVar[1].size = 12, linkingVar[2].size = 12, linkingVar[3].size = 11, linkingVar[4].size = 1, 
c Pseudo-Boolean Constraints: 94732 variables and 1004787 clauses
c Sum of weights = 1741196
c A number of soft clauses remained = 3162
c MRWTO encoding for Pseudo-Boolean Constraints
c sizeMax=18788
c No.0 Divisor=12	generated by pow1
c No.1 Divisor=12	generated by pow1
c No.2 Divisor=12	generated by pow1
c No.3 Divisor=12	generated by pow1
c p0= 12	p1= 12	p2= 12	p3= 12	
c number of digits = 5
c linkingVar[0].size = 12, linkingVar[1].size = 12, linkingVar[2].size = 12, linkingVar[3].size = 11, linkingVar[4].size = 1, 
c Pseudo-Boolean Constraints: 94732 variables and 1004787 clauses
c Sum of weights = 1741196
c A number of soft clauses remained = 3162
c MRWTO encoding for Pseudo-Boolean Constraints
c sizeMax=18788
c No.0 Divisor=12	generated by pow1
c No.1 Divisor=12	generated by pow1
c No.2 Divisor=12	generated by pow1
c No.3 Divisor=12	generated by pow1
c p0= 12	p1= 12	p2= 12	p3= 12	
c number of digits = 5
c linkingVar[0].size = 12, linkingVar[1].size = 12, linkingVar[2].size = 12, linkingVar[3].size = 11, linkingVar[4].size = 1, 
c Pseudo-Boolean Constraints: 94732 variables and 1004787 clauses
c Sum of weights = 1741196
c A number of soft clauses remained = 3162
c MRWTO encoding for Pseudo-Boolean Constraints
c sizeMax=18788
c No.0 Divisor=12	generated by pow1
c No.1 Divisor=12	generated by pow1
c No.2 Divisor=12	generated by pow1
c No.3 Divisor=12	generated by pow1
c p0= 12	p1= 12	p2= 12	p3= 12	
c number of digits = 5
c linkingVar[0].size = 12, linkingVar[1].size = 12, linkingVar[2].size = 12, linkingVar[3].size = 11, linkingVar[4].size = 1, 
c Pseudo-Boolean Constraints: 94732 variables and 1004787 clauses
c Sum of weights = 1741196
c A number of soft clauses remained = 3162
c MRWTO encoding for Pseudo-Boolean Constraints
c sizeMax=18788
c No.0 Divisor=12	generated by pow1
c No.1 Divisor=12	generated by pow1
c No.2 Divisor=12	generated by pow1
c No.3 Divisor=12	generated by pow1
c p0= 12	p1= 12	p2= 12	p3= 12	
c number of digits = 5
c linkingVar[0].size = 12, linkingVar[1].size = 12, linkingVar[2].size = 12, linkingVar[3].size = 11, linkingVar[4].size = 1, 
c Pseudo-Boolean Constraints: 94732 variables and 1004787 clauses
c Sum of weights = 1741196
c A number of soft clauses remained = 3162
c MRWTO encoding for Pseudo-Boolean Constraints
c sizeMax=18788
c No.0 Divisor=12	generated by pow1
c No.1 Divisor=12	generated by pow1
c No.2 Divisor=12	generated by pow1
c No.3 Divisor=12	generated by pow1
c p0= 12	p1= 12	p2= 12	p3= 12	
c number of digits = 5
c linkingVar[0].size = 12, linkingVar[1].size = 12, linkingVar[2].size = 12, linkingVar[3].size = 11, linkingVar[4].size = 1, 
c Pseudo-Boolean Constraints: 94732 variables and 1004787 clauses
c last restart ## conflicts  :  236 16033 
o 10964 | cpuTime 3.86533 s
c last restart ## conflicts  :  889 12579 
o 10165 | cpuTime 8.85141 s
c last restart ## conflicts  :  3104 8655 
o 9780 | cpuTime 12.9439 s
c last restart ## conflicts  :  106 14083 
o 7792 | cpuTime 23.0306 s
c last restart ## conflicts  :  909 6276 
o 7706 | cpuTime 27.4652 s
c last restart ## conflicts  :  830 9623 
o 5523 | cpuTime 34.5125 s
c last restart ## conflicts  :  401 12011 
o 5207 | cpuTime 280.355 s
c last restart ## conflicts  :  342 7179 
o 4947 | cpuTime 1190.52 s
c last restart ## conflicts  :  528 5708 
o 4860 | cpuTime 1570.45 s
c last restart ## conflicts  :  179 11072 
o 4758 | cpuTime 3305.56 s
s UNKNOWN
c Search is stopped by a limit (maybe time-limit)
cr positiVarArr: [ | 37(1->32) | 91(1->29) | 133(1->14) | 221(1->45) | 268(1->35) | 297(1->7) | 368(2->21) | 446(3->42) | 494(4->33) | 521(5->3) | 621(6->46) | 634(7->2) | 708(8->19) | 763(9->17) | 844(10->41) | 872(11->12) | 945(12->28) | 973(13->1) | 1046(14->15) | 1113(15->25) | 1192(16->47) | 1232(17->30) | 1260(18->1) | 1327(19->11) | 1371(20->1) | 1453(21->23) | 1487(22->1) | 1575(23->31) | 1623(24->22) | 1709(25->51) | 1759(26->44) | 1798(27->26) | 1856(28->27) | 1891(29->5) | 1961(30->18) | 2034(31->34) | 2106(32->49) | 2151(33->37) | 2175(34->4) | 2234(35->6) | 2324(36->39) | 2338(37->1) | 2408(38->9) | 2496(39->40) | 2561(40->48) | 2578(41->8) | 2643(42->16) | 2694(43->10) | 2791(44->50) | 2841(45->43) | 2907(46->52) | 2909(47->1) | 2993(48->24) | 3062(49->36) | 3103(50->20) | 3153(51->13) | 3235(52->38) | ]
cr the 1-th chain: [ 1->32->49->36->39->40->48->24->22->1 ] (#non-depot=8) {#cumul.=9}
cr the 2-th chain: [ 1->29->5->3->42->16->47->1 ] (#non-depot=6) {#cumul.=15}
cr the 3-th chain: [ 1->14->15->25->51->13->1 ] (#non-depot=5) {#cumul.=20}
cr the 4-th chain: [ 1->45->43->10->41->8->19->11->12->28->27->26->44->50->20->1 ] (#non-depot=14) {#cumul.=34}
cr the 5-th chain: [ 1->35->6->46->52->38->9->17->30->18->1 ] (#non-depot=9) {#cumul.=43}
cr the 6-th chain: [ 1->7->2->21->23->31->34->4->33->37->1 ] (#non-depot=9) {#cumul.=52}
c Latest Answer = 0 by 11 loops
c restarts              : 40798
c conflicts             : 8846861        (2461 /sec)
c decisions             : 96096067       (0.00 % random) (26733 /sec)
c propagations          : 34138410075    (9497094 /sec)
c conflict literals     : 1067424928     (32.26 % deleted)
c Memory used           : 885.00 MB
c CPU time              : 3594.62 s
